p cnf 514 1962
-36 11 -21 0
48 24 8 0
30 18 15 0
-12 36 43 0
11 -36 19 0
-44 -34 -22 0
-28 5 -50 0
-40 -12 24 0
27 -25 21 0
-49 26 27 0
-10 18 -1 0
11 36 9 0
-17 -32 -40 0
-21 -39 47 0
37 -12 38 0
39 6 -2 0
21 29 -39 0
-49 41 34 0
-22 -45 -3 0
30 -39 -24 0
15 26 49 0
15 -12 40 0
-46 28 -9 0
-47 50 -31 0
27 49 -34 0
18 36 -37 0
12 48 38 0
-29 -18 -12 0
-23 13 42 0
33 38 43 0
30 -20 49 0
34 -21 -11 0
-23 7 39 0
-34 -18 -25 0
-37 -1 2 0
-50 14 18 0
-16 43 -11 0
40 -29 41 0
35 -2 -5 0
43 37 11 0
-3 -38 -39 0
-49 43 -1 0
-40 -24 -46 0
31 -26 -8 0
-17 25 -2 0
16 -42 -10 0
24 -32 18 0
14 -30 39 0
24 23 -8 0
44 -20 14 0
1 -3 51 0
-1 -3 -51 0
1 3 -51 0
-1 3 51 0
4 5 52 0
-4 5 -52 0
4 -5 -52 0
-4 -5 52 0
-6 7 53 0
6 7 -53 0
-6 -7 -53 0
6 -7 53 0
-9 -10 54 0
9 -10 -54 0
-9 10 -54 0
9 10 54 0
-12 14 55 0
12 14 -55 0
-12 -14 -55 0
12 -14 55 0
-15 16 56 0
15 16 -56 0
-15 -16 -56 0
15 -16 56 0
17 -20 57 0
-17 -20 -57 0
17 20 -57 0
-17 20 57 0
21 -22 58 0
-21 -22 -58 0
21 22 -58 0
-21 22 58 0
24 -25 59 0
-24 -25 -59 0
24 25 -59 0
-24 25 59 0
32 33 60 0
-32 33 -60 0
32 -33 -60 0
-32 -33 60 0
-34 36 61 0
34 36 -61 0
-34 -36 -61 0
34 -36 61 0
-37 39 62 0
37 39 -62 0
-37 -39 -62 0
37 -39 62 0
43 45 63 0
-43 45 -63 0
43 -45 -63 0
-43 -45 63 0
47 49 64 0
-47 49 -64 0
47 -49 -64 0
-47 -49 64 0
50 -51 65 0
-50 -51 -65 0
50 51 -65 0
-50 51 65 0
52 -53 66 0
-52 -53 -66 0
52 53 -66 0
-52 53 66 0
54 -55 67 0
-54 -55 -67 0
54 55 -67 0
-54 55 67 0
56 -57 68 0
-56 -57 -68 0
56 57 -68 0
-56 57 68 0
58 -59 69 0
-58 -59 -69 0
58 59 -69 0
-58 59 69 0
60 -61 70 0
-60 -61 -70 0
60 61 -70 0
-60 61 70 0
62 -63 71 0
-62 -63 -71 0
62 63 -71 0
-62 63 71 0
64 -65 72 0
-64 -65 -72 0
64 65 -72 0
-64 65 72 0
66 -67 73 0
-66 -67 -73 0
66 67 -73 0
-66 67 73 0
68 -69 74 0
-68 -69 -74 0
68 69 -74 0
-68 69 74 0
70 -71 75 0
-70 -71 -75 0
70 71 -75 0
-70 71 75 0
72 -73 76 0
-72 -73 -76 0
72 73 -76 0
-72 73 76 0
74 -75 77 0
-74 -75 -77 0
74 75 -77 0
-74 75 77 0
76 77 0
-76 -77 0
7 8 78 0
-7 8 -78 0
7 -8 -78 0
-7 -8 78 0
9 -11 79 0
-9 -11 -79 0
9 11 -79 0
-9 11 79 0
15 -16 80 0
-15 -16 -80 0
15 16 -80 0
-15 16 80 0
17 19 81 0
-17 19 -81 0
17 -19 -81 0
-17 -19 81 0
-21 22 82 0
21 22 -82 0
-21 -22 -82 0
21 -22 82 0
23 -24 83 0
-23 -24 -83 0
23 24 -83 0
-23 24 83 0
27 -29 84 0
-27 -29 -84 0
27 29 -84 0
-27 29 84 0
30 32 85 0
-30 32 -85 0
30 -32 -85 0
-30 -32 85 0
-33 42 86 0
33 42 -86 0
-33 -42 -86 0
33 -42 86 0
44 45 87 0
-44 45 -87 0
44 -45 -87 0
-44 -45 87 0
-46 -49 88 0
46 -49 -88 0
-46 49 -88 0
46 49 88 0
77 -78 89 0
-77 -78 -89 0
77 78 -89 0
-77 78 89 0
79 -80 90 0
-79 -80 -90 0
79 80 -90 0
-79 80 90 0
81 -82 91 0
-81 -82 -91 0
81 82 -91 0
-81 82 91 0
83 -84 92 0
-83 -84 -92 0
83 84 -92 0
-83 84 92 0
85 -86 93 0
-85 -86 -93 0
85 86 -93 0
-85 86 93 0
87 -88 94 0
-87 -88 -94 0
87 88 -94 0
-87 88 94 0
89 -90 95 0
-89 -90 -95 0
89 90 -95 0
-89 90 95 0
91 -92 96 0
-91 -92 -96 0
91 92 -96 0
-91 92 96 0
93 -94 97 0
-93 -94 -97 0
93 94 -97 0
-93 94 97 0
-95 -96 97 0
95 -96 -97 0
-95 96 -97 0
95 96 97 0
-1 3 98 0
1 3 -98 0
-1 -3 -98 0
1 -3 98 0
-4 -7 99 0
4 -7 -99 0
-4 7 -99 0
4 7 99 0
10 15 100 0
-10 15 -100 0
10 -15 -100 0
-10 -15 100 0
-17 18 101 0
17 18 -101 0
-17 -18 -101 0
17 -18 101 0
-19 22 102 0
19 22 -102 0
-19 -22 -102 0
19 -22 102 0
24 -25 103 0
-24 -25 -103 0
24 25 -103 0
-24 25 103 0
-26 -30 104 0
26 -30 -104 0
-26 30 -104 0
26 30 104 0
31 32 105 0
-31 32 -105 0
31 -32 -105 0
-31 -32 105 0
-33 34 106 0
33 34 -106 0
-33 -34 -106 0
33 -34 106 0
-35 -36 107 0
35 -36 -107 0
-35 36 -107 0
35 36 107 0
37 -38 108 0
-37 -38 -108 0
37 38 -108 0
-37 38 108 0
39 42 109 0
-39 42 -109 0
39 -42 -109 0
-39 -42 109 0
97 -98 110 0
-97 -98 -110 0
97 98 -110 0
-97 98 110 0
99 -100 111 0
-99 -100 -111 0
99 100 -111 0
-99 100 111 0
101 -102 112 0
-101 -102 -112 0
101 102 -112 0
-101 102 112 0
103 -104 113 0
-103 -104 -113 0
103 104 -113 0
-103 104 113 0
105 -106 114 0
-105 -106 -114 0
105 106 -114 0
-105 106 114 0
107 -108 115 0
-107 -108 -115 0
107 108 -115 0
-107 108 115 0
109 -110 116 0
-109 -110 -116 0
109 110 -116 0
-109 110 116 0
111 -112 117 0
-111 -112 -117 0
111 112 -117 0
-111 112 117 0
113 -114 118 0
-113 -114 -118 0
113 114 -118 0
-113 114 118 0
115 -116 119 0
-115 -116 -119 0
115 116 -119 0
-115 116 119 0
117 -118 120 0
-117 -118 -120 0
117 118 -120 0
-117 118 120 0
119 120 0
-119 -120 0
1 2 121 0
-1 2 -121 0
1 -2 -121 0
-1 -2 121 0
-3 8 122 0
3 8 -122 0
-3 -8 -122 0
3 -8 122 0
11 -13 123 0
-11 -13 -123 0
11 13 -123 0
-11 13 123 0
-14 16 124 0
14 16 -124 0
-14 -16 -124 0
14 -16 124 0
19 20 125 0
-19 20 -125 0
19 -20 -125 0
-19 -20 125 0
22 -26 126 0
-22 -26 -126 0
22 26 -126 0
-22 26 126 0
-29 -30 127 0
29 -30 -127 0
-29 30 -127 0
29 30 127 0
-31 -34 128 0
31 -34 -128 0
-31 34 -128 0
31 34 128 0
-36 -37 129 0
36 -37 -129 0
-36 37 -129 0
36 37 129 0
-38 40 130 0
38 40 -130 0
-38 -40 -130 0
38 -40 130 0
43 -46 131 0
-43 -46 -131 0
43 46 -131 0
-43 46 131 0
120 -121 132 0
-120 -121 -132 0
120 121 -132 0
-120 121 132 0
122 -123 133 0
-122 -123 -133 0
122 123 -133 0
-122 123 133 0
124 -125 134 0
-124 -125 -134 0
124 125 -134 0
-124 125 134 0
126 -127 135 0
-126 -127 -135 0
126 127 -135 0
-126 127 135 0
128 -129 136 0
-128 -129 -136 0
128 129 -136 0
-128 129 136 0
130 -131 137 0
-130 -131 -137 0
130 131 -137 0
-130 131 137 0
132 -133 138 0
-132 -133 -138 0
132 133 -138 0
-132 133 138 0
134 -135 139 0
-134 -135 -139 0
134 135 -139 0
-134 135 139 0
136 -137 140 0
-136 -137 -140 0
136 137 -140 0
-136 137 140 0
-138 -139 140 0
138 -139 -140 0
-138 139 -140 0
138 139 140 0
-2 3 141 0
2 3 -141 0
-2 -3 -141 0
2 -3 141 0
-5 -6 142 0
5 -6 -142 0
-5 6 -142 0
5 6 142 0
11 -12 143 0
-11 -12 -143 0
11 12 -143 0
-11 12 143 0
-14 -15 144 0
14 -15 -144 0
-14 15 -144 0
14 15 144 0
-17 19 145 0
17 19 -145 0
-17 -19 -145 0
17 -19 145 0
20 -21 146 0
-20 -21 -146 0
20 21 -146 0
-20 21 146 0
-22 23 147 0
22 23 -147 0
-22 -23 -147 0
22 -23 147 0
32 -33 148 0
-32 -33 -148 0
32 33 -148 0
-32 33 148 0
-35 36 149 0
35 36 -149 0
-35 -36 -149 0
35 -36 149 0
-37 41 150 0
37 41 -150 0
-37 -41 -150 0
37 -41 150 0
42 -43 151 0
-42 -43 -151 0
42 43 -151 0
-42 43 151 0
46 -47 152 0
-46 -47 -152 0
46 47 -152 0
-46 47 152 0
49 50 153 0
-49 50 -153 0
49 -50 -153 0
-49 -50 153 0
141 -142 154 0
-141 -142 -154 0
141 142 -154 0
-141 142 154 0
143 -144 155 0
-143 -144 -155 0
143 144 -155 0
-143 144 155 0
145 -146 156 0
-145 -146 -156 0
145 146 -156 0
-145 146 156 0
147 -148 157 0
-147 -148 -157 0
147 148 -157 0
-147 148 157 0
149 -150 158 0
-149 -150 -158 0
149 150 -158 0
-149 150 158 0
151 -152 159 0
-151 -152 -159 0
151 152 -159 0
-151 152 159 0
153 -154 160 0
-153 -154 -160 0
153 154 -160 0
-153 154 160 0
155 -156 161 0
-155 -156 -161 0
155 156 -161 0
-155 156 161 0
157 -158 162 0
-157 -158 -162 0
157 158 -162 0
-157 158 162 0
159 -160 163 0
-159 -160 -163 0
159 160 -163 0
-159 160 163 0
161 -162 164 0
-161 -162 -164 0
161 162 -164 0
-161 162 164 0
163 164 0
-163 -164 0
-3 5 165 0
3 5 -165 0
-3 -5 -165 0
3 -5 165 0
7 8 166 0
-7 8 -166 0
7 -8 -166 0
-7 -8 166 0
-9 10 167 0
9 10 -167 0
-9 -10 -167 0
9 -10 167 0
-11 -12 168 0
11 -12 -168 0
-11 12 -168 0
11 12 168 0
14 -16 169 0
-14 -16 -169 0
14 16 -169 0
-14 16 169 0
17 -18 170 0
-17 -18 -170 0
17 18 -170 0
-17 18 170 0
21 -22 171 0
-21 -22 -171 0
21 22 -171 0
-21 22 171 0
24 -29 172 0
-24 -29 -172 0
24 29 -172 0
-24 29 172 0
-30 34 173 0
30 34 -173 0
-30 -34 -173 0
30 -34 173 0
-35 36 174 0
35 36 -174 0
-35 -36 -174 0
35 -36 174 0
-37 -39 175 0
37 -39 -175 0
-37 39 -175 0
37 39 175 0
40 42 176 0
-40 42 -176 0
40 -42 -176 0
-40 -42 176 0
-44 46 177 0
44 46 -177 0
-44 -46 -177 0
44 -46 177 0
47 -49 178 0
-47 -49 -178 0
47 49 -178 0
-47 49 178 0
164 -165 179 0
-164 -165 -179 0
164 165 -179 0
-164 165 179 0
166 -167 180 0
-166 -167 -180 0
166 167 -180 0
-166 167 180 0
168 -169 181 0
-168 -169 -181 0
168 169 -181 0
-168 169 181 0
170 -171 182 0
-170 -171 -182 0
170 171 -182 0
-170 171 182 0
172 -173 183 0
-172 -173 -183 0
172 173 -183 0
-172 173 183 0
174 -175 184 0
-174 -175 -184 0
174 175 -184 0
-174 175 184 0
176 -177 185 0
-176 -177 -185 0
176 177 -185 0
-176 177 185 0
178 -179 186 0
-178 -179 -186 0
178 179 -186 0
-178 179 186 0
180 -181 187 0
-180 -181 -187 0
180 181 -187 0
-180 181 187 0
182 -183 188 0
-182 -183 -188 0
182 183 -188 0
-182 183 188 0
184 -185 189 0
-184 -185 -189 0
184 185 -189 0
-184 185 189 0
186 -187 190 0
-186 -187 -190 0
186 187 -190 0
-186 187 190 0
188 -189 191 0
-188 -189 -191 0
188 189 -191 0
-188 189 191 0
190 191 0
-190 -191 0
2 -4 192 0
-2 -4 -192 0
2 4 -192 0
-2 4 192 0
-5 -6 193 0
5 -6 -193 0
-5 6 -193 0
5 6 193 0
-8 11 194 0
8 11 -194 0
-8 -11 -194 0
8 -11 194 0
-17 18 195 0
17 18 -195 0
-17 -18 -195 0
17 -18 195 0
-19 22 196 0
19 22 -196 0
-19 -22 -196 0
19 -22 196 0
23 24 197 0
-23 24 -197 0
23 -24 -197 0
-23 -24 197 0
-25 -28 198 0
25 -28 -198 0
-25 28 -198 0
25 28 198 0
29 31 199 0
-29 31 -199 0
29 -31 -199 0
-29 -31 199 0
35 36 200 0
-35 36 -200 0
35 -36 -200 0
-35 -36 200 0
41 -43 201 0
-41 -43 -201 0
41 43 -201 0
-41 43 201 0
-46 48 202 0
46 48 -202 0
-46 -48 -202 0
46 -48 202 0
49 -50 203 0
-49 -50 -203 0
49 50 -203 0
-49 50 203 0
192 -193 204 0
-192 -193 -204 0
192 193 -204 0
-192 193 204 0
194 -195 205 0
-194 -195 -205 0
194 195 -205 0
-194 195 205 0
196 -197 206 0
-196 -197 -206 0
196 197 -206 0
-196 197 206 0
198 -199 207 0
-198 -199 -207 0
198 199 -207 0
-198 199 207 0
200 -201 208 0
-200 -201 -208 0
200 201 -208 0
-200 201 208 0
202 -203 209 0
-202 -203 -209 0
202 203 -209 0
-202 203 209 0
204 -205 210 0
-204 -205 -210 0
204 205 -210 0
-204 205 210 0
206 -207 211 0
-206 -207 -211 0
206 207 -211 0
-206 207 211 0
208 -209 212 0
-208 -209 -212 0
208 209 -212 0
-208 209 212 0
-210 -211 212 0
210 -211 -212 0
-210 211 -212 0
210 211 212 0
-1 2 213 0
1 2 -213 0
-1 -2 -213 0
1 -2 213 0
-3 5 214 0
3 5 -214 0
-3 -5 -214 0
3 -5 214 0
-6 10 215 0
6 10 -215 0
-6 -10 -215 0
6 -10 215 0
-12 14 216 0
12 14 -216 0
-12 -14 -216 0
12 -14 216 0
15 19 217 0
-15 19 -217 0
15 -19 -217 0
-15 -19 217 0
-21 24 218 0
21 24 -218 0
-21 -24 -218 0
21 -24 218 0
25 26 219 0
-25 26 -219 0
25 -26 -219 0
-25 -26 219 0
31 32 220 0
-31 32 -220 0
31 -32 -220 0
-31 -32 220 0
33 34 221 0
-33 34 -221 0
33 -34 -221 0
-33 -34 221 0
-36 39 222 0
36 39 -222 0
-36 -39 -222 0
36 -39 222 0
-40 41 223 0
40 41 -223 0
-40 -41 -223 0
40 -41 223 0
43 47 224 0
-43 47 -224 0
43 -47 -224 0
-43 -47 224 0
-48 49 225 0
48 49 -225 0
-48 -49 -225 0
48 -49 225 0
213 -214 226 0
-213 -214 -226 0
213 214 -226 0
-213 214 226 0
215 -216 227 0
-215 -216 -227 0
215 216 -227 0
-215 216 227 0
217 -218 228 0
-217 -218 -228 0
217 218 -228 0
-217 218 228 0
219 -220 229 0
-219 -220 -229 0
219 220 -229 0
-219 220 229 0
221 -222 230 0
-221 -222 -230 0
221 222 -230 0
-221 222 230 0
223 -224 231 0
-223 -224 -231 0
223 224 -231 0
-223 224 231 0
225 -226 232 0
-225 -226 -232 0
225 226 -232 0
-225 226 232 0
227 -228 233 0
-227 -228 -233 0
227 228 -233 0
-227 228 233 0
229 -230 234 0
-229 -230 -234 0
229 230 -234 0
-229 230 234 0
231 -232 235 0
-231 -232 -235 0
231 232 -235 0
-231 232 235 0
233 -234 236 0
-233 -234 -236 0
233 234 -236 0
-233 234 236 0
235 236 0
-235 -236 0
-1 2 237 0
1 2 -237 0
-1 -2 -237 0
1 -2 237 0
-3 -4 238 0
3 -4 -238 0
-3 4 -238 0
3 4 238 0
-5 -10 239 0
5 -10 -239 0
-5 10 -239 0
5 10 239 0
11 13 240 0
-11 13 -240 0
11 -13 -240 0
-11 -13 240 0
-14 16 241 0
14 16 -241 0
-14 -16 -241 0
14 -16 241 0
18 -21 242 0
-18 -21 -242 0
18 21 -242 0
-18 21 242 0
-22 23 243 0
22 23 -243 0
-22 -23 -243 0
22 -23 243 0
-25 27 244 0
25 27 -244 0
-25 -27 -244 0
25 -27 244 0
-28 29 245 0
28 29 -245 0
-28 -29 -245 0
28 -29 245 0
-30 38 246 0
30 38 -246 0
-30 -38 -246 0
30 -38 246 0
40 -41 247 0
-40 -41 -247 0
40 41 -247 0
-40 41 247 0
42 -43 248 0
-42 -43 -248 0
42 43 -248 0
-42 43 248 0
-44 -47 249 0
44 -47 -249 0
-44 47 -249 0
44 47 249 0
237 -238 250 0
-237 -238 -250 0
237 238 -250 0
-237 238 250 0
239 -240 251 0
-239 -240 -251 0
239 240 -251 0
-239 240 251 0
241 -242 252 0
-241 -242 -252 0
241 242 -252 0
-241 242 252 0
243 -244 253 0
-243 -244 -253 0
243 244 -253 0
-243 244 253 0
245 -246 254 0
-245 -246 -254 0
245 246 -254 0
-245 246 254 0
247 -248 255 0
-247 -248 -255 0
247 248 -255 0
-247 248 255 0
249 -250 256 0
-249 -250 -256 0
249 250 -256 0
-249 250 256 0
251 -252 257 0
-251 -252 -257 0
251 252 -257 0
-251 252 257 0
253 -254 258 0
-253 -254 -258 0
253 254 -258 0
-253 254 258 0
255 -256 259 0
-255 -256 -259 0
255 256 -259 0
-255 256 259 0
257 -258 260 0
-257 -258 -260 0
257 258 -260 0
-257 258 260 0
259 260 0
-259 -260 0
2 -3 261 0
-2 -3 -261 0
2 3 -261 0
-2 3 261 0
-7 8 262 0
7 8 -262 0
-7 -8 -262 0
7 -8 262 0
-11 -12 263 0
11 -12 -263 0
-11 12 -263 0
11 12 263 0
-13 18 264 0
13 18 -264 0
-13 -18 -264 0
13 -18 264 0
19 21 265 0
-19 21 -265 0
19 -21 -265 0
-19 -21 265 0
-22 -24 266 0
22 -24 -266 0
-22 24 -266 0
22 24 266 0
-25 29 267 0
25 29 -267 0
-25 -29 -267 0
25 -29 267 0
32 37 268 0
-32 37 -268 0
32 -37 -268 0
-32 -37 268 0
39 -42 269 0
-39 -42 -269 0
39 42 -269 0
-39 42 269 0
-44 48 270 0
44 48 -270 0
-44 -48 -270 0
44 -48 270 0
260 -261 271 0
-260 -261 -271 0
260 261 -271 0
-260 261 271 0
262 -263 272 0
-262 -263 -272 0
262 263 -272 0
-262 263 272 0
264 -265 273 0
-264 -265 -273 0
264 265 -273 0
-264 265 273 0
266 -267 274 0
-266 -267 -274 0
266 267 -274 0
-266 267 274 0
268 -269 275 0
-268 -269 -275 0
268 269 -275 0
-268 269 275 0
270 -271 276 0
-270 -271 -276 0
270 271 -276 0
-270 271 276 0
272 -273 277 0
-272 -273 -277 0
272 273 -277 0
-272 273 277 0
274 -275 278 0
-274 -275 -278 0
274 275 -278 0
-274 275 278 0
-276 -277 278 0
276 -277 -278 0
-276 277 -278 0
276 277 278 0
1 2 279 0
-1 2 -279 0
1 -2 -279 0
-1 -2 279 0
-3 -5 280 0
3 -5 -280 0
-3 5 -280 0
3 5 280 0
-7 -12 281 0
7 -12 -281 0
-7 12 -281 0
7 12 281 0
-13 16 282 0
13 16 -282 0
-13 -16 -282 0
13 -16 282 0
17 -22 283 0
-17 -22 -283 0
17 22 -283 0
-17 22 283 0
26 27 284 0
-26 27 -284 0
26 -27 -284 0
-26 -27 284 0
28 -30 285 0
-28 -30 -285 0
28 30 -285 0
-28 30 285 0
-31 32 286 0
31 32 -286 0
-31 -32 -286 0
31 -32 286 0
-34 -35 287 0
34 -35 -287 0
-34 35 -287 0
34 35 287 0
39 -41 288 0
-39 -41 -288 0
39 41 -288 0
-39 41 288 0
-42 44 289 0
42 44 -289 0
-42 -44 -289 0
42 -44 289 0
46 -48 290 0
-46 -48 -290 0
46 48 -290 0
-46 48 290 0
278 -279 291 0
-278 -279 -291 0
278 279 -291 0
-278 279 291 0
280 -281 292 0
-280 -281 -292 0
280 281 -292 0
-280 281 292 0
282 -283 293 0
-282 -283 -293 0
282 283 -293 0
-282 283 293 0
284 -285 294 0
-284 -285 -294 0
284 285 -294 0
-284 285 294 0
286 -287 295 0
-286 -287 -295 0
286 287 -295 0
-286 287 295 0
288 -289 296 0
-288 -289 -296 0
288 289 -296 0
-288 289 296 0
290 -291 297 0
-290 -291 -297 0
290 291 -297 0
-290 291 297 0
292 -293 298 0
-292 -293 -298 0
292 293 -298 0
-292 293 298 0
294 -295 299 0
-294 -295 -299 0
294 295 -299 0
-294 295 299 0
296 -297 300 0
-296 -297 -300 0
296 297 -300 0
-296 297 300 0
298 -299 301 0
-298 -299 -301 0
298 299 -301 0
-298 299 301 0
300 301 0
-300 -301 0
2 7 302 0
-2 7 -302 0
2 -7 -302 0
-2 -7 302 0
-9 -12 303 0
9 -12 -303 0
-9 12 -303 0
9 12 303 0
14 -16 304 0
-14 -16 -304 0
14 16 -304 0
-14 16 304 0
-18 -21 305 0
18 -21 -305 0
-18 21 -305 0
18 21 305 0
-22 -24 306 0
22 -24 -306 0
-22 24 -306 0
22 24 306 0
26 27 307 0
-26 27 -307 0
26 -27 -307 0
-26 -27 307 0
-31 -32 308 0
31 -32 -308 0
-31 32 -308 0
31 32 308 0
-37 39 309 0
37 39 -309 0
-37 -39 -309 0
37 -39 309 0
-42 44 310 0
42 44 -310 0
-42 -44 -310 0
42 -44 310 0
301 -302 311 0
-301 -302 -311 0
301 302 -311 0
-301 302 311 0
303 -304 312 0
-303 -304 -312 0
303 304 -312 0
-303 304 312 0
305 -306 313 0
-305 -306 -313 0
305 306 -313 0
-305 306 313 0
307 -308 314 0
-307 -308 -314 0
307 308 -314 0
-307 308 314 0
309 -310 315 0
-309 -310 -315 0
309 310 -315 0
-309 310 315 0
311 -312 316 0
-311 -312 -316 0
311 312 -316 0
-311 312 316 0
313 -314 317 0
-313 -314 -317 0
313 314 -317 0
-313 314 317 0
-315 -316 317 0
315 -316 -317 0
-315 316 -317 0
315 316 317 0
-1 2 318 0
1 2 -318 0
-1 -2 -318 0
1 -2 318 0
-4 -6 319 0
4 -6 -319 0
-4 6 -319 0
4 6 319 0
7 8 320 0
-7 8 -320 0
7 -8 -320 0
-7 -8 320 0
-9 -13 321 0
9 -13 -321 0
-9 13 -321 0
9 13 321 0
-15 17 322 0
15 17 -322 0
-15 -17 -322 0
15 -17 322 0
18 -19 323 0
-18 -19 -323 0
18 19 -323 0
-18 19 323 0
-20 22 324 0
20 22 -324 0
-20 -22 -324 0
20 -22 324 0
-23 24 325 0
23 24 -325 0
-23 -24 -325 0
23 -24 325 0
-25 26 326 0
25 26 -326 0
-25 -26 -326 0
25 -26 326 0
-27 -28 327 0
27 -28 -327 0
-27 28 -327 0
27 28 327 0
-29 30 328 0
29 30 -328 0
-29 -30 -328 0
29 -30 328 0
32 -35 329 0
-32 -35 -329 0
32 35 -329 0
-32 35 329 0
-36 -37 330 0
36 -37 -330 0
-36 37 -330 0
36 37 330 0
39 40 331 0
-39 40 -331 0
39 -40 -331 0
-39 -40 331 0
-42 -43 332 0
42 -43 -332 0
-42 43 -332 0
42 43 332 0
44 -46 333 0
-44 -46 -333 0
44 46 -333 0
-44 46 333 0
-48 49 334 0
48 49 -334 0
-48 -49 -334 0
48 -49 334 0
317 -318 335 0
-317 -318 -335 0
317 318 -335 0
-317 318 335 0
319 -320 336 0
-319 -320 -336 0
319 320 -336 0
-319 320 336 0
321 -322 337 0
-321 -322 -337 0
321 322 -337 0
-321 322 337 0
323 -324 338 0
-323 -324 -338 0
323 324 -338 0
-323 324 338 0
325 -326 339 0
-325 -326 -339 0
325 326 -339 0
-325 326 339 0
327 -328 340 0
-327 -328 -340 0
327 328 -340 0
-327 328 340 0
329 -330 341 0
-329 -330 -341 0
329 330 -341 0
-329 330 341 0
331 -332 342 0
-331 -332 -342 0
331 332 -342 0
-331 332 342 0
333 -334 343 0
-333 -334 -343 0
333 334 -343 0
-333 334 343 0
335 -336 344 0
-335 -336 -344 0
335 336 -344 0
-335 336 344 0
337 -338 345 0
-337 -338 -345 0
337 338 -345 0
-337 338 345 0
339 -340 346 0
-339 -340 -346 0
339 340 -346 0
-339 340 346 0
341 -342 347 0
-341 -342 -347 0
341 342 -347 0
-341 342 347 0
343 -344 348 0
-343 -344 -348 0
343 344 -348 0
-343 344 348 0
345 -346 349 0
-345 -346 -349 0
345 346 -349 0
-345 346 349 0
-347 -348 349 0
347 -348 -349 0
-347 348 -349 0
347 348 349 0
2 3 350 0
-2 3 -350 0
2 -3 -350 0
-2 -3 350 0
5 7 351 0
-5 7 -351 0
5 -7 -351 0
-5 -7 351 0
9 -12 352 0
-9 -12 -352 0
9 12 -352 0
-9 12 352 0
13 -14 353 0
-13 -14 -353 0
13 14 -353 0
-13 14 353 0
17 -21 354 0
-17 -21 -354 0
17 21 -354 0
-17 21 354 0
22 -23 355 0
-22 -23 -355 0
22 23 -355 0
-22 23 355 0
-24 -25 356 0
24 -25 -356 0
-24 25 -356 0
24 25 356 0
29 -32 357 0
-29 -32 -357 0
29 32 -357 0
-29 32 357 0
34 -35 358 0
-34 -35 -358 0
34 35 -358 0
-34 35 358 0
-36 -38 359 0
36 -38 -359 0
-36 38 -359 0
36 38 359 0
-40 -43 360 0
40 -43 -360 0
-40 43 -360 0
40 43 360 0
45 -47 361 0
-45 -47 -361 0
45 47 -361 0
-45 47 361 0
-49 50 362 0
49 50 -362 0
-49 -50 -362 0
49 -50 362 0
350 -351 363 0
-350 -351 -363 0
350 351 -363 0
-350 351 363 0
352 -353 364 0
-352 -353 -364 0
352 353 -364 0
-352 353 364 0
354 -355 365 0
-354 -355 -365 0
354 355 -365 0
-354 355 365 0
356 -357 366 0
-356 -357 -366 0
356 357 -366 0
-356 357 366 0
358 -359 367 0
-358 -359 -367 0
358 359 -367 0
-358 359 367 0
360 -361 368 0
-360 -361 -368 0
360 361 -368 0
-360 361 368 0
362 -363 369 0
-362 -363 -369 0
362 363 -369 0
-362 363 369 0
364 -365 370 0
-364 -365 -370 0
364 365 -370 0
-364 365 370 0
366 -367 371 0
-366 -367 -371 0
366 367 -371 0
-366 367 371 0
368 -369 372 0
-368 -369 -372 0
368 369 -372 0
-368 369 372 0
370 -371 373 0
-370 -371 -373 0
370 371 -373 0
-370 371 373 0
372 373 0
-372 -373 0
1 7 374 0
-1 7 -374 0
1 -7 -374 0
-1 -7 374 0
-8 -9 375 0
8 -9 -375 0
-8 9 -375 0
8 9 375 0
-11 -12 376 0
11 -12 -376 0
-11 12 -376 0
11 12 376 0
-19 -21 377 0
19 -21 -377 0
-19 21 -377 0
19 21 377 0
22 -24 378 0
-22 -24 -378 0
22 24 -378 0
-22 24 378 0
-25 -28 379 0
25 -28 -379 0
-25 28 -379 0
25 28 379 0
29 -30 380 0
-29 -30 -380 0
29 30 -380 0
-29 30 380 0
33 36 381 0
-33 36 -381 0
33 -36 -381 0
-33 -36 381 0
40 41 382 0
-40 41 -382 0
40 -41 -382 0
-40 -41 382 0
-45 -48 383 0
45 -48 -383 0
-45 48 -383 0
45 48 383 0
373 -374 384 0
-373 -374 -384 0
373 374 -384 0
-373 374 384 0
375 -376 385 0
-375 -376 -385 0
375 376 -385 0
-375 376 385 0
377 -378 386 0
-377 -378 -386 0
377 378 -386 0
-377 378 386 0
379 -380 387 0
-379 -380 -387 0
379 380 -387 0
-379 380 387 0
381 -382 388 0
-381 -382 -388 0
381 382 -388 0
-381 382 388 0
383 -384 389 0
-383 -384 -389 0
383 384 -389 0
-383 384 389 0
385 -386 390 0
-385 -386 -390 0
385 386 -390 0
-385 386 390 0
387 -388 391 0
-387 -388 -391 0
387 388 -391 0
-387 388 391 0
-389 -390 391 0
389 -390 -391 0
-389 390 -391 0
389 390 391 0
-1 -3 392 0
1 -3 -392 0
-1 3 -392 0
1 3 392 0
5 -7 393 0
-5 -7 -393 0
5 7 -393 0
-5 7 393 0
9 -10 394 0
-9 -10 -394 0
9 10 -394 0
-9 10 394 0
11 12 395 0
-11 12 -395 0
11 -12 -395 0
-11 -12 395 0
13 14 396 0
-13 14 -396 0
13 -14 -396 0
-13 -14 396 0
15 -18 397 0
-15 -18 -397 0
15 18 -397 0
-15 18 397 0
21 -23 398 0
-21 -23 -398 0
21 23 -398 0
-21 23 398 0
25 -27 399 0
-25 -27 -399 0
25 27 -399 0
-25 27 399 0
-28 -30 400 0
28 -30 -400 0
-28 30 -400 0
28 30 400 0
-32 34 401 0
32 34 -401 0
-32 -34 -401 0
32 -34 401 0
35 37 402 0
-35 37 -402 0
35 -37 -402 0
-35 -37 402 0
-39 45 403 0
39 45 -403 0
-39 -45 -403 0
39 -45 403 0
47 48 404 0
-47 48 -404 0
47 -48 -404 0
-47 -48 404 0
-49 50 405 0
49 50 -405 0
-49 -50 -405 0
49 -50 405 0
392 -393 406 0
-392 -393 -406 0
392 393 -406 0
-392 393 406 0
394 -395 407 0
-394 -395 -407 0
394 395 -407 0
-394 395 407 0
396 -397 408 0
-396 -397 -408 0
396 397 -408 0
-396 397 408 0
398 -399 409 0
-398 -399 -409 0
398 399 -409 0
-398 399 409 0
400 -401 410 0
-400 -401 -410 0
400 401 -410 0
-400 401 410 0
402 -403 411 0
-402 -403 -411 0
402 403 -411 0
-402 403 411 0
404 -405 412 0
-404 -405 -412 0
404 405 -412 0
-404 405 412 0
406 -407 413 0
-406 -407 -413 0
406 407 -413 0
-406 407 413 0
408 -409 414 0
-408 -409 -414 0
408 409 -414 0
-408 409 414 0
410 -411 415 0
-410 -411 -415 0
410 411 -415 0
-410 411 415 0
412 -413 416 0
-412 -413 -416 0
412 413 -416 0
-412 413 416 0
414 -415 417 0
-414 -415 -417 0
414 415 -417 0
-414 415 417 0
416 417 0
-416 -417 0
-1 -2 418 0
1 -2 -418 0
-1 2 -418 0
1 2 418 0
4 7 419 0
-4 7 -419 0
4 -7 -419 0
-4 -7 419 0
-12 -13 420 0
12 -13 -420 0
-12 13 -420 0
12 13 420 0
16 -18 421 0
-16 -18 -421 0
16 18 -421 0
-16 18 421 0
-20 -21 422 0
20 -21 -422 0
-20 21 -422 0
20 21 422 0
-27 -30 423 0
27 -30 -423 0
-27 30 -423 0
27 30 423 0
-31 32 424 0
31 32 -424 0
-31 -32 -424 0
31 -32 424 0
-33 37 425 0
33 37 -425 0
-33 -37 -425 0
33 -37 425 0
-41 -42 426 0
41 -42 -426 0
-41 42 -426 0
41 42 426 0
44 46 427 0
-44 46 -427 0
44 -46 -427 0
-44 -46 427 0
47 48 428 0
-47 48 -428 0
47 -48 -428 0
-47 -48 428 0
49 -50 429 0
-49 -50 -429 0
49 50 -429 0
-49 50 429 0
418 -419 430 0
-418 -419 -430 0
418 419 -430 0
-418 419 430 0
420 -421 431 0
-420 -421 -431 0
420 421 -431 0
-420 421 431 0
422 -423 432 0
-422 -423 -432 0
422 423 -432 0
-422 423 432 0
424 -425 433 0
-424 -425 -433 0
424 425 -433 0
-424 425 433 0
426 -427 434 0
-426 -427 -434 0
426 427 -434 0
-426 427 434 0
428 -429 435 0
-428 -429 -435 0
428 429 -435 0
-428 429 435 0
430 -431 436 0
-430 -431 -436 0
430 431 -436 0
-430 431 436 0
432 -433 437 0
-432 -433 -437 0
432 433 -437 0
-432 433 437 0
434 -435 438 0
-434 -435 -438 0
434 435 -438 0
-434 435 438 0
-436 -437 438 0
436 -437 -438 0
-436 437 -438 0
436 437 438 0
2 3 439 0
-2 3 -439 0
2 -3 -439 0
-2 -3 439 0
7 8 440 0
-7 8 -440 0
7 -8 -440 0
-7 -8 440 0
9 10 441 0
-9 10 -441 0
9 -10 -441 0
-9 -10 441 0
11 -12 442 0
-11 -12 -442 0
11 12 -442 0
-11 12 442 0
14 15 443 0
-14 15 -443 0
14 -15 -443 0
-14 -15 443 0
17 -18 444 0
-17 -18 -444 0
17 18 -444 0
-17 18 444 0
19 -22 445 0
-19 -22 -445 0
19 22 -445 0
-19 22 445 0
25 -26 446 0
-25 -26 -446 0
25 26 -446 0
-25 26 446 0
-27 -29 447 0
27 -29 -447 0
-27 29 -447 0
27 29 447 0
30 -32 448 0
-30 -32 -448 0
30 32 -448 0
-30 32 448 0
33 35 449 0
-33 35 -449 0
33 -35 -449 0
-33 -35 449 0
38 39 450 0
-38 39 -450 0
38 -39 -450 0
-38 -39 450 0
-42 -44 451 0
42 -44 -451 0
-42 44 -451 0
42 44 451 0
45 49 452 0
-45 49 -452 0
45 -49 -452 0
-45 -49 452 0
439 -440 453 0
-439 -440 -453 0
439 440 -453 0
-439 440 453 0
441 -442 454 0
-441 -442 -454 0
441 442 -454 0
-441 442 454 0
443 -444 455 0
-443 -444 -455 0
443 444 -455 0
-443 444 455 0
445 -446 456 0
-445 -446 -456 0
445 446 -456 0
-445 446 456 0
447 -448 457 0
-447 -448 -457 0
447 448 -457 0
-447 448 457 0
449 -450 458 0
-449 -450 -458 0
449 450 -458 0
-449 450 458 0
451 -452 459 0
-451 -452 -459 0
451 452 -459 0
-451 452 459 0
453 -454 460 0
-453 -454 -460 0
453 454 -460 0
-453 454 460 0
455 -456 461 0
-455 -456 -461 0
455 456 -461 0
-455 456 461 0
457 -458 462 0
-457 -458 -462 0
457 458 -462 0
-457 458 462 0
459 -460 463 0
-459 -460 -463 0
459 460 -463 0
-459 460 463 0
461 -462 464 0
-461 -462 -464 0
461 462 -464 0
-461 462 464 0
463 464 0
-463 -464 0
-2 -3 465 0
2 -3 -465 0
-2 3 -465 0
2 3 465 0
-4 -9 466 0
4 -9 -466 0
-4 9 -466 0
4 9 466 0
12 -13 467 0
-12 -13 -467 0
12 13 -467 0
-12 13 467 0
14 16 468 0
-14 16 -468 0
14 -16 -468 0
-14 -16 468 0
-17 -21 469 0
17 -21 -469 0
-17 21 -469 0
17 21 469 0
26 -27 470 0
-26 -27 -470 0
26 27 -470 0
-26 27 470 0
-28 -29 471 0
28 -29 -471 0
-28 29 -471 0
28 29 471 0
-32 34 472 0
32 34 -472 0
-32 -34 -472 0
32 -34 472 0
35 36 473 0
-35 36 -473 0
35 -36 -473 0
-35 -36 473 0
37 38 474 0
-37 38 -474 0
37 -38 -474 0
-37 -38 474 0
-39 -41 475 0
39 -41 -475 0
-39 41 -475 0
39 41 475 0
42 -43 476 0
-42 -43 -476 0
42 43 -476 0
-42 43 476 0
44 -45 477 0
-44 -45 -477 0
44 45 -477 0
-44 45 477 0
47 50 478 0
-47 50 -478 0
47 -50 -478 0
-47 -50 478 0
465 -466 479 0
-465 -466 -479 0
465 466 -479 0
-465 466 479 0
467 -468 480 0
-467 -468 -480 0
467 468 -480 0
-467 468 480 0
469 -470 481 0
-469 -470 -481 0
469 470 -481 0
-469 470 481 0
471 -472 482 0
-471 -472 -482 0
471 472 -482 0
-471 472 482 0
473 -474 483 0
-473 -474 -483 0
473 474 -483 0
-473 474 483 0
475 -476 484 0
-475 -476 -484 0
475 476 -484 0
-475 476 484 0
477 -478 485 0
-477 -478 -485 0
477 478 -485 0
-477 478 485 0
479 -480 486 0
-479 -480 -486 0
479 480 -486 0
-479 480 486 0
481 -482 487 0
-481 -482 -487 0
481 482 -487 0
-481 482 487 0
483 -484 488 0
-483 -484 -488 0
483 484 -488 0
-483 484 488 0
485 -486 489 0
-485 -486 -489 0
485 486 -489 0
-485 486 489 0
487 -488 490 0
-487 -488 -490 0
487 488 -490 0
-487 488 490 0
489 490 0
-489 -490 0
1 -4 491 0
-1 -4 -491 0
1 4 -491 0
-1 4 491 0
7 -9 492 0
-7 -9 -492 0
7 9 -492 0
-7 9 492 0
-12 -15 493 0
12 -15 -493 0
-12 15 -493 0
12 15 493 0
17 -18 494 0
-17 -18 -494 0
17 18 -494 0
-17 18 494 0
-19 22 495 0
19 22 -495 0
-19 -22 -495 0
19 -22 495 0
-25 -26 496 0
25 -26 -496 0
-25 26 -496 0
25 26 496 0
-27 28 497 0
27 28 -497 0
-27 -28 -497 0
27 -28 497 0
-32 33 498 0
32 33 -498 0
-32 -33 -498 0
32 -33 498 0
35 36 499 0
-35 36 -499 0
35 -36 -499 0
-35 -36 499 0
-37 40 500 0
37 40 -500 0
-37 -40 -500 0
37 -40 500 0
-42 43 501 0
42 43 -501 0
-42 -43 -501 0
42 -43 501 0
-44 45 502 0
44 45 -502 0
-44 -45 -502 0
44 -45 502 0
47 49 503 0
-47 49 -503 0
47 -49 -503 0
-47 -49 503 0
491 -492 504 0
-491 -492 -504 0
491 492 -504 0
-491 492 504 0
493 -494 505 0
-493 -494 -505 0
493 494 -505 0
-493 494 505 0
495 -496 506 0
-495 -496 -506 0
495 496 -506 0
-495 496 506 0
497 -498 507 0
-497 -498 -507 0
497 498 -507 0
-497 498 507 0
499 -500 508 0
-499 -500 -508 0
499 500 -508 0
-499 500 508 0
501 -502 509 0
-501 -502 -509 0
501 502 -509 0
-501 502 509 0
503 -504 510 0
-503 -504 -510 0
503 504 -510 0
-503 504 510 0
505 -506 511 0
-505 -506 -511 0
505 506 -511 0
-505 506 511 0
507 -508 512 0
-507 -508 -512 0
507 508 -512 0
-507 508 512 0
509 -510 513 0
-509 -510 -513 0
509 510 -513 0
-509 510 513 0
511 -512 514 0
-511 -512 -514 0
511 512 -514 0
-511 512 514 0
513 514 0
-513 -514 0
